Input: ticf-13crafb.prec15.dzn
============================================================
Total Runtime: 2.8175 seconds
Input parsing: 0.0009 seconds
Constraint building: 0.7102 seconds
MaxSAT solving: 1.6469 seconds
============================================================

Total variables: 222922
Total clauses: 468372
MaxSAT found with cost: 0
NO SOLUTION FOUND
